NAME : tsp_379_sol.txt
COMMENT : OR-Tools Guided Local Search
TYPE : TOUR
DIMENSION : 50
COST : 5718
STATUS : ROUTING_SUCCESS
GAP : 0.00% (Reference Solution)
TOUR_SECTION
1
50
30
33
34
5
42
21
14
27
19
15
26
24
3
25
29
7
17
48
11
6
16
41
13
36
46
43
10
35
40
9
31
45
8
39
23
28
4
20
12
37
44
47
38
18
32
22
2
49
-1
